COLUMNS

passenger_count
pickup_ID
dropoff_ID
request_time_sec
pickup_district
dropoff_district
LDuals
IDuals
vehicle_ID
pick_position
drop_position

REQUESTS_INFO
1      836       699       32349     290       290       109       109       210       1         2         
2      885       882       32343     290       290       139       139       412       1         2         
1      1086      665       32357     291       131       111       111       481       1         2         
3      577       699       32316     189       290       149       149       642       1         3         
4      992       621       32363     290       280       140       140       703       1         2         
2      860       849       32361     290       291       121       121       716       1         2         
1      372       719       32343     119       189       145       145       786       1         2         
1      815       330       32354     290       127       128       128       838       1         2         
1      947       766       32368     290       290       117       117       918       1         2         
1      906       620       32359     290       131       124       124       993       1         3         
1      836       722       32369     290       290       89        89        1007      1         2         
2      1148      905       32357     291       290       108       108       1196      1         3         
3      600       599       32363     280       280       96        96        1763      1         2         
1      772       559       32342     290       189       119       119       1779      1         3         
1      510       556       32370     199       199       0         0         0         0         0         
1      905       628       32370     290       189       0         0         0         0         0         
3      549       863       32371     52        290       0         0         0         0         0         
1      550       593       32371     189       52        0         0         0         0         0         
4      598       600       32371     189       280       0         0         0         0         0         
2      549       863       32371     52        290       0         0         0         0         0         
1      717       644       32372     189       131       0         0         0         0         0         
1      603       673       32373     189       189       0         0         0         0         0         
1      229       220       32373     266       87        0         0         0         0         0         
1      356       701       32373     119       290       0         0         0         0         0         
1      971       1214      32374     290       129       0         0         0         0         0         
1      699       649       32374     290       189       0         0         0         0         0         
2      419       606       32374     168       189       0         0         0         0         0         
1      387       247       32375     299       266       0         0         0         0         0         
1      694       652       32375     189       189       0         0         0         0         0         
1      552       902       32375     189       50        0         0         0         0         0         
3      1207      1106      32376     192       291       0         0         0         0         0         
1      699       421       32376     290       168       0         0         0         0         0         
1      915       1001      32376     291       291       0         0         0         0         0         
1      552       528       32376     189       52        0         0         0         0         0         
1      103       399       32376     57        168       0         0         0         0         0         
2      549       598       32377     52        189       0         0         0         0         0         
2      813       724       32377     290       290       0         0         0         0         0         
1      1288      945       32378     129       50        0         0         0         0         0         
3      629       813       32378     189       290       0         0         0         0         0         
2      629       813       32378     189       290       0         0         0         0         0         
2      556       709       32379     199       131       0         0         0         0         0         
3      116       116       32379     9         9         0         0         0         0         0         
2      116       116       32379     9         9         0         0         0         0         0         
1      466       528       32379     199       52        0         0         0         0         0         
1      896       604       32380     291       189       0         0         0         0         0         
1      556       940       32381     199       291       0         0         0         0         0         
1      824       546       32381     291       52        0         0         0         0         0         
1      233       166       32382     206       178       0         0         0         0         0         
1      1503      1418      32382     296       129       0         0         0         0         0         
1      175       789       32382     266       290       0         0         0         0         0         
3      874       719       32383     291       189       0         0         0         0         0         
1      549       649       32383     52        189       0         0         0         0         0         
1      717       648       32383     189       189       0         0         0         0         0         
1      413       600       32384     52        280       0         0         0         0         0         
1      891       272       32384     291       127       0         0         0         0         0         
1      436       511       32384     100       199       0         0         0         0         0         
1      527       626       32384     52        189       0         0         0         0         0         
1      925       1002      32384     290       291       0         0         0         0         0         
3      499       876       32385     52        50        0         0         0         0         0         
3      499       876       32385     52        50        0         0         0         0         0         
1      1489      922       32385     296       50        0         0         0         0         0         
1      442       504       32385     168       52        0         0         0         0         0         
1      217       528       32385     87        52        0         0         0         0         0         
2      511       399       32386     199       168       0         0         0         0         0         
1      1273      1436      32386     84        129       0         0         0         0         0         
1      790       462       32386     290       189       0         0         0         0         0         
2      1048      1044      32386     291       291       0         0         0         0         0         
3      1048      1044      32386     291       291       0         0         0         0         0         
1      305       191       32387     299       266       0         0         0         0         0         
2      355       527       32388     119       52        0         0         0         0         0         
3      355       527       32388     119       52        0         0         0         0         0         
1      1148      981       32388     291       291       0         0         0         0         0         
3      907       939       32388     290       291       0         0         0         0         0         
1      1109      895       32389     291       291       0         0         0         0         0         
2      549       437       32391     52        100       0         0         0         0         0         
3      549       437       32391     52        100       0         0         0         0         0         
3      527       398       32391     52        168       0         0         0         0         0         
1      669       527       32391     280       52        0         0         0         0         0         
1      816       885       32392     290       290       0         0         0         0         0         
1      1057      792       32392     84        290       0         0         0         0         0         
1      702       488       32392     290       199       0         0         0         0         0         
2      1010      1066      32393     290       291       0         0         0         0         0         
2      597       414       32393     131       100       0         0         0         0         0         
1      1199      1097      32393     84        84        0         0         0         0         0         
1      1076      925       32393     84        290       0         0         0         0         0         
1      511       310       32393     199       127       0         0         0         0         0         
1      770       701       32394     290       290       0         0         0         0         0         
1      1142      927       32394     84        290       0         0         0         0         0         
1      173       456       32394     286       52        0         0         0         0         0         
3      578       82        32394     189       98        0         0         0         0         0         
1      1167      1053      32394     291       84        0         0         0         0         0         
1      644       545       32394     131       52        0         0         0         0         0         
1      1417      850       32394     129       291       0         0         0         0         0         
3      836       527       32394     290       52        0         0         0         0         0         
3      836       527       32394     290       52        0         0         0         0         0         
1      397       508       32395     168       199       0         0         0         0         0         
1      44        528       32395     98        52        0         0         0         0         0         
1      887       559       32395     290       189       0         0         0         0         0         
1      245       324       32395     999       299       0         0         0         0         0         
2      63        64        32395     98        98        0         0         0         0         0         
1      849       631       32396     291       189       0         0         0         0         0         
1      328       291       32396     299       87        0         0         0         0         0         
2      947       945       32397     290       50        0         0         0         0         0         
3      947       945       32397     290       50        0         0         0         0         0         
3      229       192       32397     266       266       0         0         0         0         0         
1      276       1108      32397     87        291       0         0         0         0         0         
1      923       768       32397     290       290       0         0         0         0         0         
1      884       1001      32397     290       291       0         0         0         0         0         
1      848       696       32397     291       189       0         0         0         0         0         
2      229       192       32397     266       266       0         0         0         0         0         
1      217       399       32398     87        168       0         0         0         0         0         
1      1022      847       32398     291       291       0         0         0         0         0         
1      608       726       32398     189       290       0         0         0         0         0         
1      1002      1127      32398     291       291       0         0         0         0         0         
2      927       776       32398     290       131       0         0         0         0         0         
1      210       981       32399     266       291       0         0         0         0         0         
